(set-logic ALL)
(declare-fun seed0_T_1 () Bool)
(declare-fun seed0_T_2 () Bool)
(declare-fun seed0_var_0xINPUT_57952 () String)
(assert (and (or (= seed0_T_1 (= seed0_var_0xINPUT_57952 "Search")) (not (str.contains (str.++ seed0_var_0xINPUT_57952 "T3GItOxsQ5CFYohU") (str.++ seed0_var_0xINPUT_57952 "VcFRBza9KM")))) (or (= seed0_T_2 (not seed0_T_1)) (str.suffixof (str.++ seed0_var_0xINPUT_57952 "CmM6YAgqGhHzW2kyN") (str.++ seed0_var_0xINPUT_57952 "mhLbc"))) (or seed0_T_2 (str.prefixof (str.++ seed0_var_0xINPUT_57952 "RMH28ZAOrtCcSLI6dlv") (str.++ seed0_var_0xINPUT_57952 "d7uFi31OowvI")))))
(check-sat)
(exit)